426,357
238,99
576,199
123,358
212,207
250,277
565,292
81,370
417,311
411,257
286,63
537,145
558,274
447,124
42,281
576,386
303,10
398,127
361,25
450,99
437,193
26,381
545,176
31,305
530,327
487,162
224,393
588,2
116,13
37,146
